3393.53 0
0 92 89 84 142 147 140 148 141 143 138 139 144 0
0 74 68 70 65 71 69 133 136 0
0 106 111 102 110 97 109 0
0 150 13 5 16 12 11 4 8 7 15 104 108 101 99 103 112 57 0
0 135 121 23 30 32 31 26 35 20 0
0 33 19 28 22 21 18 0
0 132 134 126 128 116 122 73 67 72 66 105 98 100 107 0
0 120 127 125 118 131 130 129 62 61 0
0 1 45 50 49 47 40 38 43 44 39 41 46 51 58 0
0 90 87 81 91 82 78 83 79 77 85 76 80 137 0
0 34 25 64 60 55 54 56 63 0
0 75 88 86 93 95 96 94 0
0 48 42 10 3 9 17 2 14 6 146 149 145 0
0 117 114 113 124 119 123 115 37 29 24 36 27 0
0 52 59 53 0